104
105
108
109
86
82
81
80
79
132
133
134
135
136
137
138
139
140
141
142
143
144
110
107
106
115
131
130
129
128
127
126
125
124
123
122
121
99
90
89
76
75
18
17
12
11
10
9
7
8
19
20
21
83
84
85
111
112
113
114
60
59
48
47
46
6
5
4
3
1
2
28
29
27
35
36
37
38
39
40
23
22
24
25
26
30
34
33
32
31
49
50
51
52
53
54
55
56
57
58
87
88
103
102
101
100
98
97
94
93
92
91
73
74
72
71
45
44
43
14
13
15
16
42
41
70
69
68
67
66
65
64
63
62
61
77
78
96
95
116
117
118
119
120
104
